Route #1: 44 10 29 27 8 5 51
Route #2: 36 6 25 41
Route #3: 1 18 30 20 42 40
Route #4: 3 31 24 28 11 21 39 14 45 4
Route #5: 23 12 50 17 49 15 19 34 32 38 48
Route #6: 2 16 9 46 13 26 22
Route #7: 35 33 43 7 37 47
Cost 748
Time 0.074364
